c instance by G2
c solution = 11101100010011101011
c Known solution cost is 923
p cnf 20 30
w 78 80 78 34 55 31 25 32 37 12 71 67 33 6 63 53 6 66 50 46
-13 20 -6 0
15 11 -17 0
-7 -6 -17 0
-3 5 -4 0
6 11 -1 0
-17 -11 -13 0
-6 11 19 0
14 12 -2 0
-16 -14 7 0
4 -5 3 0
-10 11 -18 0
-16 18 -5 0
-14 20 6 0
9 -12 4 0
13 16 -19 0
17 7 -3 0
5 -14 -1 0
17 -10 -1 0
-15 -19 -11 0
6 7 -5 0
-14 -1 -4 0
-7 20 17 0
-6 -11 -18 0
1 12 -13 0
-4 5 2 0
-8 -15 18 0
11 10 -19 0
2 -10 -1 0
18 -9 -20 0
17 18 -20 0